n_res = 4;
rc = [ 54, 57, 54, 59 ];
n_tasks = 90;
d = [ 2, 5, 8, 6, 10, 5, 5, 2, 8, 3, 7, 9, 1, 5, 10, 6, 8, 3, 10, 1, 9, 1, 1, 5, 3, 7, 1, 4, 5, 6, 4, 3, 1, 1, 7, 5, 8, 7, 7, 5, 3, 2, 10, 10, 8, 3, 3, 9, 4, 5, 5, 5, 4, 10, 4, 7, 7, 5, 2, 6, 3, 4, 10, 10, 8, 4, 8, 3, 5, 9, 8, 6, 7, 3, 4, 10, 5, 8, 6, 3, 2, 2, 6, 6, 9, 2, 10, 6, 8, 9 ];
rr = [| 8, 5, 3, 9, 6, 7, 2, 3, 0, 0, 2, 9, 2, 7, 0, 0, 0, 8, 3, 1, 2, 0, 2, 3, 0, 6, 8, 0, 1, 0, 0, 9, 2, 0, 0, 4, 0, 5, 8, 0, 7, 9, 5, 0, 9, 6, 6, 5, 5, 0, 2, 5, 9, 0, 0, 7, 1, 0, 1, 7, 0, 6, 8, 8, 0, 3, 9, 0, 1, 0, 9, 6, 7, 3, 6, 9, 0, 10, 0, 5, 8, 3, 4, 9, 0, 9, 7, 10, 9, 4
      | 8, 5, 8, 0, 0, 0, 5, 3, 4, 0, 0, 3, 10, 0, 7, 5, 0, 8, 4, 5, 0, 3, 0, 4, 2, 9, 3, 4, 8, 8, 1, 3, 0, 5, 5, 0, 9, 7, 0, 6, 4, 9, 5, 4, 4, 4, 0, 0, 1, 0, 0, 2, 0, 0, 10, 3, 0, 8, 3, 10, 8, 10, 4, 1, 10, 0, 5, 10, 2, 8, 7, 5, 3, 1, 9, 5, 4, 8, 5, 6, 10, 2, 0, 1, 7, 5, 7, 0, 0, 3
      | 4, 7, 4, 0, 8, 1, 4, 6, 7, 7, 3, 7, 6, 3, 2, 9, 0, 9, 1, 8, 8, 5, 8, 0, 0, 0, 4, 3, 6, 3, 0, 3, 0, 10, 0, 1, 7, 5, 4, 1, 0, 9, 3, 10, 5, 5, 1, 4, 0, 5, 0, 10, 3, 5, 10, 6, 1, 1, 10, 10, 4, 10, 9, 2, 1, 7, 0, 1, 2, 10, 0, 9, 7, 6, 1, 0, 8, 0, 7, 8, 0, 8, 7, 2, 4, 1, 3, 10, 7, 7
      | 5, 0, 5, 7, 0, 9, 0, 8, 0, 0, 2, 9, 0, 5, 0, 5, 1, 10, 6, 3, 3, 4, 5, 0, 1, 4, 0, 5, 0, 0, 5, 5, 0, 9, 10, 10, 0, 10, 6, 5, 9, 7, 2, 1, 5, 7, 4, 6, 6, 3, 9, 0, 8, 4, 1, 0, 0, 5, 3, 3, 8, 0, 0, 3, 3, 7, 4, 0, 8, 4, 3, 0, 8, 8, 2, 8, 3, 6, 0, 6, 10, 0, 6, 3, 8, 0, 10, 1, 9, 0 |];
suc = [ { 4, 32, 63 },
       { 6, 15, 71 },
       { 5, 18, 64 },
       { 9, 15, 28 },
       { 7, 8, 14 },
       { 10, 17, 20 },
       { 11, 22 },
       { 12, 34, 35 },
       { 49 },
       { 13, 30 },
       { 24, 27, 29 },
       { 16, 37, 41 },
       { 19, 31, 48 },
       { 21, 40 },
       { 47 },
       { 38, 46 },
       { 22, 23, 26 },
       { 61 },
       { 72, 78 },
       { 45, 64 },
       { 33, 52 },
       { 43, 53, 76 },
       { 50, 77 },
       { 25, 36 },
       { 70, 87 },
       { 31, 34 },
       { 31, 39, 45 },
       { 58, 82 },
       { 42 },
       { 44, 48, 70 },
       { 38 },
       { 54 },
       { 67 },
       { 37 },
       { 39 },
       { 50, 55, 65 },
       { 72, 76 },
       { 60 },
       { 46, 56, 65 },
       { 49 },
       { 68, 69, 78 },
       { 86 },
       { 81 },
       { 62, 73, 79 },
       { 60, 86 },
       { 52, 62, 71 },
       { 50, 54, 55 },
       { 51, 81 },
       { 51, 60 },
       { 51, 73 },
       { 66 },
       { 70 },
       { 84 },
       { 57, 61, 67 },
       { 83 },
       { 62, 78 },
       { 59, 64 },
       { 61, 68, 69 },
       { 74 },
       { 76 },
       { 84 },
       { 68 },
       { 65, 69 },
       { 66 },
       { 75, 79 },
       { 72, 87 },
       { 74 },
       { 74 },
       { 71 },
       { 83, 90 },
       { 79, 87 },
       { 85 },
       { 75, 80 },
       { 83, 85, 86 },
       { 82, 85 },
       { 80, 81 },
       { 82 },
       { 80 },
       { 89 },
       { 88 },
       { 89 },
       { 88 },
       { 84 },
       { 89 },
       { 90 },
       { 88 },
       { 90 },
       {  },
       {  },
       {  } ];
